unknown
(model
; cardinality of BoundSet is 3
(declare-sort BoundSet 0)
; rep: @uc_BoundSet_0
; rep: @uc_BoundSet_1
; rep: @uc_BoundSet_2
; cardinality of UnboundSet is 1
(declare-sort UnboundSet 0)
(declare-fun groundTerm_4 () UnboundSet)
(define-fun IsBlond ((BOUND_VARIABLE_427 BoundSet)) Bool true)
(define-fun HasTattooOfAnAngel ((BOUND_VARIABLE_427 BoundSet)) Bool true)
(define-fun IsOnHerArm ((BOUND_VARIABLE_427 BoundSet)) Bool true)
(define-fun IsWithTattoo ((BOUND_VARIABLE_427 BoundSet)) Bool false)
(define-fun WalksDownTheStreet ((BOUND_VARIABLE_443 BoundSet) (BOUND_VARIABLE_444 BoundSet)) Bool false)
)
sat
(model
; cardinality of BoundSet is 1
(declare-sort BoundSet 0)
; rep: @uc_BoundSet_0
; cardinality of UnboundSet is 1
(declare-sort UnboundSet 0)
(declare-fun groundTerm_6 () UnboundSet)
(define-fun IsBlond ((BOUND_VARIABLE_462 BoundSet)) Bool true)
(define-fun HasTattooOfAnAngel ((BOUND_VARIABLE_462 BoundSet)) Bool true)
(define-fun IsOnHerArm ((BOUND_VARIABLE_462 BoundSet)) Bool true)
(define-fun IsWithTattoo ((BOUND_VARIABLE_462 BoundSet)) Bool false)
(define-fun WalksDownTheStreet ((BOUND_VARIABLE_475 BoundSet) (BOUND_VARIABLE_476 BoundSet)) Bool false)
)
